BEGIN IONS
PEPMASS=301.217
CHARGE=1
MSLEVEL=2
SOURCE_INSTRUMENT=LC-ESI-qTof
FILENAME=dehydroabietic_acid.mgf
SEQ=*..*
IONMODE=Positive
ORGANISM=GNPS-LIBRARY
NAME=dehydroabietic acid M+H
PI=LITAUDON/TOUBOUL
DATACOLLECTOR=Esposito
SMILES=CC(C)C1=CC=C([C@](CCC[C@]2(C(O)=O)C)(C)[C@@]2([H])CC3)C3=C1
INCHI=
INCHIAUX=
PUBMED=N/A
SUBMITUSER=lfnothias
LIBRARYQUALITY=1
SPECTRUMID=CCMSLIB00000840371
SCANS=1
67.05442	248.636795
67.295418	28.91848
69.069847	130.055206
95.270027	14.00543
95.518143	18.00379
105.068787	113.005096
109.100365	553.614685
109.134651	27.05357
109.983765	21.65761
115.052284	24.44643
117.068954	122.042801
131.085251	300.744812
133.100266	1058.017944
133.1642	13.20833
133.345184	11.55682
133.371719	22.148809
133.784348	39.002659
145.100922	287.257111
145.146606	10.04167
147.118027	141.893097
149.5905	17.405001
159.123444	19.014709
173.129883	29.779409
185.13179	132.487793
243.162384	39.859699
285.638184	64.137932
362.682526	20.66667
416.807037	53.45454
443.14325	15.16447
540.019958	34.400002
546.221985	25.007351
604.641296	20.089279
675.881104	15.03125
692.13031	11.77885
727.529175	26.32692
END IONS